; ============================================================
; Part 2 — Scenario 2: Person is NOT a Dependent
; ============================================================
;
; Scenario Description (generated by Claude):
; --------------------------------------------
; Taxpayer:  Bob (age 40, U.S. citizen, not a dependent of anyone else)
; Potential Dependent: Robert (age 45, Bob's work colleague)
;
; Facts:
;   - Robert has no family relationship to Bob (not a relative) ✗
;   - Robert lived with Bob for only 3 months (not >6 months, not full year) ✗
;   - Robert is 45 years old (over 19, not a student, not disabled) ✗
;   - Robert earns $60,000/year gross income (far exceeds $4,700 exemption) ✗
;   - Robert provides 100% of his own support ✗
;   - Robert is a U.S. citizen ✓
;   - Robert did not file a joint return ✓
;
; Expected Result: Robert is NOT a dependent of Bob.
;   - Fails qualifying child: wrong age, wrong relationship, insufficient residence
;   - Fails qualifying relative: not a relative, not full-year household member,
;     income too high, self-supporting
; ============================================================

; --- Variable declarations ---
(declare-const is_child_or_descendant Bool)
(declare-const is_sibling_or_descendant Bool)
(declare-const months_same_abode Int)
(declare-const age Int)
(declare-const is_full_time_student Bool)
(declare-const is_permanently_disabled Bool)
(declare-const d_self_support_ratio Real)
(declare-const filed_joint_return Bool)
(declare-const filed_joint_only_for_refund Bool)
(declare-const is_us_citizen_or_national Bool)
(declare-const is_resident_us_canada_mexico Bool)
(declare-const taxpayer_is_dependent_of_another Bool)
(declare-const is_specified_relative Bool)
(declare-const is_household_member_full_year Bool)
(declare-const gross_income Int)
(declare-const exemption_amount Int)
(declare-const taxpayer_support_ratio Real)
(declare-const is_qc_of_any_taxpayer Bool)

; --- §152 rule definitions ---
(define-fun qc_relationship_test () Bool
  (or is_child_or_descendant is_sibling_or_descendant))
(define-fun qc_residence_test () Bool
  (> months_same_abode 6))
(define-fun qc_age_test () Bool
  (or (< age 19)
      (and (< age 24) is_full_time_student)
      is_permanently_disabled))
(define-fun qc_support_test () Bool
  (not (> d_self_support_ratio (/ 1.0 2.0))))
(define-fun no_joint_return_test () Bool
  (or (not filed_joint_return) filed_joint_only_for_refund))
(define-fun is_qualifying_child () Bool
  (and qc_relationship_test qc_residence_test qc_age_test
       qc_support_test no_joint_return_test))

(define-fun qr_not_qc_test () Bool
  (not is_qc_of_any_taxpayer))
(define-fun qr_relationship_test () Bool
  (or is_specified_relative is_household_member_full_year))
(define-fun qr_income_test () Bool
  (< gross_income exemption_amount))
(define-fun qr_support_test () Bool
  (> taxpayer_support_ratio (/ 1.0 2.0)))
(define-fun is_qualifying_relative () Bool
  (and qr_not_qc_test qr_relationship_test qr_income_test qr_support_test))

(define-fun passes_exceptions () Bool
  (and no_joint_return_test
       (or is_us_citizen_or_national is_resident_us_canada_mexico)
       (not taxpayer_is_dependent_of_another)))

(define-fun is_dependent () Bool
  (and (or is_qualifying_child is_qualifying_relative)
       passes_exceptions))

; --- Scenario-specific facts (Robert's case) ---
(assert (= exemption_amount 4700))
(assert (= is_child_or_descendant false))          ; not Bob's child
(assert (= is_sibling_or_descendant false))        ; not Bob's sibling
(assert (= months_same_abode 3))                   ; only 3 months together
(assert (= age 45))                                ; age 45
(assert (= is_full_time_student false))
(assert (= is_permanently_disabled false))
(assert (= d_self_support_ratio 1.0))              ; self-supporting
(assert (= filed_joint_return false))
(assert (= filed_joint_only_for_refund false))
(assert (= is_us_citizen_or_national true))
(assert (= is_resident_us_canada_mexico false))
(assert (= taxpayer_is_dependent_of_another false))
(assert (= is_specified_relative false))           ; not a family member
(assert (= is_household_member_full_year false))   ; only 3 months, not full year
(assert (= gross_income 60000))                    ; $60,000 income
(assert (= taxpayer_support_ratio 0.0))            ; Bob provides 0% support
(assert (= is_qc_of_any_taxpayer false))

; --- Verify: Robert is NOT a dependent ---
; We assert NOT is_dependent and expect sat
(assert (not is_dependent))
(check-sat)
(get-value (is_qualifying_child))
(get-value (is_qualifying_relative))
(get-value (is_dependent))
